
-9.1
-8.6
-8.4
-8.3
-7.8
-7.2
-6.5
-5.0
-3.0
-2.0
-1.3
-1.2
-1.2
-1.2
-1.1
-1.1
-1.0
-0.9
-0.9
-0.9
-0.9
-0.9
-0.9
-0.9
-0.9
-0.9
-0.9
-0.9
-0.9
-0.9
-9.0
-8.5
-8.2
-8.2
-7.8
-7.3
-6.2
-5.0
-3.6
-2.1
-1.8
-1.5
-1.1
-1.0
-1.0
-1.0
-1.0
-1.0
-1.0
-1.0
-1.0
-1.0
-1.0
-0.9
-0.9
-0.9
-0.9
-0.9
-0.9
-0.9
-0.9
-0.9
-8.9
-8.8
-8.6
-8.3
-7.7
-7.2
-6.6
-5.4
-3.6
-2.2
-1.7
-1.5
-1.4
-1.3
-1.1
-1.1
-1.1
-1.1
-1.0
-1.0
-1.0
-1.0
-1.0
-1.0
-1.0
-1.0
-1.0
-1.0
-1.0